p cnf 456 1575
21 66 0
-21 -66 0
102 -85 0
-102 85 0
-86 -102 0
-87 -102 0
-85 -22 -101 0
-85 22 0
-86 -22 -101 0
-86 22 0
-87 -22 -101 0
-87 22 0
105 -21 0
-105 21 0
250 -105 0
-250 105 0
101 -105 0
-101 105 0
106 -25 -30 0
-106 25 0
-106 30 0
251 -106 0
-251 106 0
252 -85 -106 88 0
-252 85 0
-252 106 0
-252 -88 0
253 -109 -106 88 85 0
-253 109 0
-253 106 0
-253 -88 0
-253 -85 0
254 -109 -88 -85 -106 0
-254 109 0
-254 88 0
-254 85 0
-254 106 0
255 -86 -106 89 0
-255 86 0
-255 106 0
-255 -89 0
256 -110 -106 89 86 0
-256 110 0
-256 106 0
-256 -89 0
-256 -86 0
257 -110 -89 -86 -106 0
-257 110 0
-257 89 0
-257 86 0
-257 106 0
110 -87 -106 90 0
-110 87 0
-110 106 0
-110 -90 0
107 -106 -108 0
-107 106 0
-107 108 0
258 -107 101 0
-258 107 0
-258 -101 0
259 -88 -85 -106 0
-259 88 0
-259 85 0
-259 106 0
260 -106 88 85 0
-260 106 0
-260 -88 0
-260 -85 0
261 -111 -89 -86 -106 0
-261 111 0
-261 89 0
-261 86 0
-261 106 0
262 -111 -106 89 86 0
-262 111 0
-262 106 0
-262 -89 0
-262 -86 0
113 -85 -106 88 0
-113 85 0
-113 106 0
-113 -88 0
263 -111 -86 -106 89 0
-263 111 0
-263 86 0
-263 106 0
-263 -89 0
264 -113 -89 -106 86 0
-264 113 0
-264 89 0
-264 106 0
-264 -86 0
265 -112 -87 -106 90 0
-265 112 0
-265 87 0
-265 106 0
-265 -90 0
266 -114 -90 -106 87 0
-266 114 0
-266 90 0
-266 106 0
-266 -87 0
-107 115 0
267 -106 -115 0
-267 106 0
-267 115 0
116 -33 -36 0
-116 33 0
-116 36 0
268 -116 0
-268 116 0
269 -85 -116 94 0
-269 85 0
-269 116 0
-269 -94 0
270 -119 -116 94 85 0
-270 119 0
-270 116 0
-270 -94 0
-270 -85 0
271 -119 -94 -85 -116 0
-271 119 0
-271 94 0
-271 85 0
-271 116 0
272 -86 -116 95 0
-272 86 0
-272 116 0
-272 -95 0
273 -120 -116 95 86 0
-273 120 0
-273 116 0
-273 -95 0
-273 -86 0
274 -120 -95 -86 -116 0
-274 120 0
-274 95 0
-274 86 0
-274 116 0
120 -87 -116 96 0
-120 87 0
-120 116 0
-120 -96 0
117 -116 -118 0
-117 116 0
-117 118 0
275 -117 101 0
-275 117 0
-275 -101 0
276 -94 -85 -116 0
-276 94 0
-276 85 0
-276 116 0
277 -116 94 85 0
-277 116 0
-277 -94 0
-277 -85 0
278 -121 -95 -86 -116 0
-278 121 0
-278 95 0
-278 86 0
-278 116 0
279 -121 -116 95 86 0
-279 121 0
-279 116 0
-279 -95 0
-279 -86 0
123 -85 -116 94 0
-123 85 0
-123 116 0
-123 -94 0
280 -121 -86 -116 95 0
-280 121 0
-280 86 0
-280 116 0
-280 -95 0
281 -123 -95 -116 86 0
-281 123 0
-281 95 0
-281 116 0
-281 -86 0
282 -122 -87 -116 96 0
-282 122 0
-282 87 0
-282 116 0
-282 -96 0
283 -124 -96 -116 87 0
-283 124 0
-283 96 0
-283 116 0
-283 -87 0
-117 125 0
284 -116 -125 0
-284 116 0
-284 125 0
126 -28 -38 0
-126 28 0
-126 38 0
285 -126 0
-285 126 0
286 -85 -126 91 0
-286 85 0
-286 126 0
-286 -91 0
287 -129 -126 91 85 0
-287 129 0
-287 126 0
-287 -91 0
-287 -85 0
288 -129 -91 -85 -126 0
-288 129 0
-288 91 0
-288 85 0
-288 126 0
289 -86 -126 92 0
-289 86 0
-289 126 0
-289 -92 0
290 -130 -126 92 86 0
-290 130 0
-290 126 0
-290 -92 0
-290 -86 0
291 -130 -92 -86 -126 0
-291 130 0
-291 92 0
-291 86 0
-291 126 0
130 -87 -126 93 0
-130 87 0
-130 126 0
-130 -93 0
127 -126 -128 0
-127 126 0
-127 128 0
292 -127 101 0
-292 127 0
-292 -101 0
293 -91 -85 -126 0
-293 91 0
-293 85 0
-293 126 0
294 -126 91 85 0
-294 126 0
-294 -91 0
-294 -85 0
295 -131 -92 -86 -126 0
-295 131 0
-295 92 0
-295 86 0
-295 126 0
296 -131 -126 92 86 0
-296 131 0
-296 126 0
-296 -92 0
-296 -86 0
133 -85 -126 91 0
-133 85 0
-133 126 0
-133 -91 0
297 -131 -86 -126 92 0
-297 131 0
-297 86 0
-297 126 0
-297 -92 0
298 -133 -92 -126 86 0
-298 133 0
-298 92 0
-298 126 0
-298 -86 0
299 -132 -87 -126 93 0
-299 132 0
-299 87 0
-299 126 0
-299 -93 0
300 -134 -93 -126 87 0
-300 134 0
-300 93 0
-300 126 0
-300 -87 0
-127 135 0
301 -126 -135 0
-301 126 0
-301 135 0
136 -41 -42 0
-136 41 0
-136 42 0
302 -136 0
-302 136 0
303 -85 -136 97 0
-303 85 0
-303 136 0
-303 -97 0
304 -139 -136 97 85 0
-304 139 0
-304 136 0
-304 -97 0
-304 -85 0
305 -139 -97 -85 -136 0
-305 139 0
-305 97 0
-305 85 0
-305 136 0
306 -86 -136 98 0
-306 86 0
-306 136 0
-306 -98 0
307 -140 -136 98 86 0
-307 140 0
-307 136 0
-307 -98 0
-307 -86 0
308 -140 -98 -86 -136 0
-308 140 0
-308 98 0
-308 86 0
-308 136 0
140 -87 -136 99 0
-140 87 0
-140 136 0
-140 -99 0
137 -136 -138 0
-137 136 0
-137 138 0
309 -137 101 0
-309 137 0
-309 -101 0
310 -97 -85 -136 0
-310 97 0
-310 85 0
-310 136 0
311 -136 97 85 0
-311 136 0
-311 -97 0
-311 -85 0
312 -141 -98 -86 -136 0
-312 141 0
-312 98 0
-312 86 0
-312 136 0
313 -141 -136 98 86 0
-313 141 0
-313 136 0
-313 -98 0
-313 -86 0
143 -85 -136 97 0
-143 85 0
-143 136 0
-143 -97 0
314 -141 -86 -136 98 0
-314 141 0
-314 86 0
-314 136 0
-314 -98 0
315 -143 -98 -136 86 0
-315 143 0
-315 98 0
-315 136 0
-315 -86 0
316 -142 -87 -136 99 0
-316 142 0
-316 87 0
-316 136 0
-316 -99 0
317 -144 -99 -136 87 0
-317 144 0
-317 99 0
-317 136 0
-317 -87 0
-137 145 0
318 -136 -145 0
-318 136 0
-318 145 0
-103 104 0
-22 103 101 0
23 67 0
-23 -67 0
24 68 0
-24 -68 0
148 -88 0
-148 88 0
-89 -148 0
-90 -148 0
-88 -25 -147 0
-88 25 0
-89 -25 -147 0
-89 25 0
-90 -25 -147 0
-90 25 0
151 -24 0
-151 24 0
319 -151 0
-319 151 0
147 -151 0
-147 151 0
152 -28 -29 0
-152 28 0
-152 29 0
320 -152 0
-320 152 0
321 -88 -152 91 0
-321 88 0
-321 152 0
-321 -91 0
322 -155 -152 91 88 0
-322 155 0
-322 152 0
-322 -91 0
-322 -88 0
323 -155 -91 -88 -152 0
-323 155 0
-323 91 0
-323 88 0
-323 152 0
324 -89 -152 92 0
-324 89 0
-324 152 0
-324 -92 0
325 -156 -152 92 89 0
-325 156 0
-325 152 0
-325 -92 0
-325 -89 0
326 -156 -92 -89 -152 0
-326 156 0
-326 92 0
-326 89 0
-326 152 0
156 -90 -152 93 0
-156 90 0
-156 152 0
-156 -93 0
153 -152 -154 0
-153 152 0
-153 154 0
327 -153 147 0
-327 153 0
-327 -147 0
328 -91 -88 -152 0
-328 91 0
-328 88 0
-328 152 0
329 -152 91 88 0
-329 152 0
-329 -91 0
-329 -88 0
330 -157 -92 -89 -152 0
-330 157 0
-330 92 0
-330 89 0
-330 152 0
331 -157 -152 92 89 0
-331 157 0
-331 152 0
-331 -92 0
-331 -89 0
159 -88 -152 91 0
-159 88 0
-159 152 0
-159 -91 0
332 -157 -89 -152 92 0
-332 157 0
-332 89 0
-332 152 0
-332 -92 0
333 -159 -92 -152 89 0
-333 159 0
-333 92 0
-333 152 0
-333 -89 0
334 -158 -90 -152 93 0
-334 158 0
-334 90 0
-334 152 0
-334 -93 0
335 -160 -93 -152 90 0
-335 160 0
-335 93 0
-335 152 0
-335 -90 0
-153 161 0
336 -152 -161 0
-336 152 0
-336 161 0
162 -22 -23 0
-162 22 0
-162 23 0
337 -162 0
-337 162 0
338 -88 -162 85 0
-338 88 0
-338 162 0
-338 -85 0
339 -165 -162 85 88 0
-339 165 0
-339 162 0
-339 -85 0
-339 -88 0
340 -165 -85 -88 -162 0
-340 165 0
-340 85 0
-340 88 0
-340 162 0
341 -89 -162 86 0
-341 89 0
-341 162 0
-341 -86 0
342 -166 -162 86 89 0
-342 166 0
-342 162 0
-342 -86 0
-342 -89 0
343 -166 -86 -89 -162 0
-343 166 0
-343 86 0
-343 89 0
-343 162 0
166 -90 -162 87 0
-166 90 0
-166 162 0
-166 -87 0
163 -162 -164 0
-163 162 0
-163 164 0
344 -163 147 0
-344 163 0
-344 -147 0
345 -85 -88 -162 0
-345 85 0
-345 88 0
-345 162 0
346 -162 85 88 0
-346 162 0
-346 -85 0
-346 -88 0
347 -167 -86 -89 -162 0
-347 167 0
-347 86 0
-347 89 0
-347 162 0
348 -167 -162 86 89 0
-348 167 0
-348 162 0
-348 -86 0
-348 -89 0
169 -88 -162 85 0
-169 88 0
-169 162 0
-169 -85 0
349 -167 -89 -162 86 0
-349 167 0
-349 89 0
-349 162 0
-349 -86 0
350 -169 -86 -162 89 0
-350 169 0
-350 86 0
-350 162 0
-350 -89 0
351 -168 -90 -162 87 0
-351 168 0
-351 90 0
-351 162 0
-351 -87 0
352 -170 -87 -162 90 0
-352 170 0
-352 87 0
-352 162 0
-352 -90 0
-163 171 0
353 -162 -171 0
-353 162 0
-353 171 0
172 -33 -34 0
-172 33 0
-172 34 0
354 -172 0
-354 172 0
355 -88 -172 94 0
-355 88 0
-355 172 0
-355 -94 0
356 -175 -172 94 88 0
-356 175 0
-356 172 0
-356 -94 0
-356 -88 0
357 -175 -94 -88 -172 0
-357 175 0
-357 94 0
-357 88 0
-357 172 0
358 -89 -172 95 0
-358 89 0
-358 172 0
-358 -95 0
359 -176 -172 95 89 0
-359 176 0
-359 172 0
-359 -95 0
-359 -89 0
360 -176 -95 -89 -172 0
-360 176 0
-360 95 0
-360 89 0
-360 172 0
176 -90 -172 96 0
-176 90 0
-176 172 0
-176 -96 0
173 -172 -174 0
-173 172 0
-173 174 0
361 -173 147 0
-361 173 0
-361 -147 0
362 -94 -88 -172 0
-362 94 0
-362 88 0
-362 172 0
363 -172 94 88 0
-363 172 0
-363 -94 0
-363 -88 0
364 -177 -95 -89 -172 0
-364 177 0
-364 95 0
-364 89 0
-364 172 0
365 -177 -172 95 89 0
-365 177 0
-365 172 0
-365 -95 0
-365 -89 0
179 -88 -172 94 0
-179 88 0
-179 172 0
-179 -94 0
366 -177 -89 -172 95 0
-366 177 0
-366 89 0
-366 172 0
-366 -95 0
367 -179 -95 -172 89 0
-367 179 0
-367 95 0
-367 172 0
-367 -89 0
368 -178 -90 -172 96 0
-368 178 0
-368 90 0
-368 172 0
-368 -96 0
369 -180 -96 -172 90 0
-369 180 0
-369 96 0
-369 172 0
-369 -90 0
-173 181 0
370 -172 -181 0
-370 172 0
-370 181 0
-149 150 0
-25 149 147 0
26 69 0
-26 -69 0
27 70 0
-27 -70 0
184 -91 0
-184 91 0
-92 -184 0
-93 -184 0
-91 -28 -183 0
-91 28 0
-92 -28 -183 0
-92 28 0
-93 -28 -183 0
-93 28 0
187 -27 0
-187 27 0
371 -187 0
-371 187 0
183 -187 0
-183 187 0
188 -25 -26 0
-188 25 0
-188 26 0
372 -188 0
-372 188 0
373 -91 -188 88 0
-373 91 0
-373 188 0
-373 -88 0
374 -191 -188 88 91 0
-374 191 0
-374 188 0
-374 -88 0
-374 -91 0
375 -191 -88 -91 -188 0
-375 191 0
-375 88 0
-375 91 0
-375 188 0
376 -92 -188 89 0
-376 92 0
-376 188 0
-376 -89 0
377 -192 -188 89 92 0
-377 192 0
-377 188 0
-377 -89 0
-377 -92 0
378 -192 -89 -92 -188 0
-378 192 0
-378 89 0
-378 92 0
-378 188 0
192 -93 -188 90 0
-192 93 0
-192 188 0
-192 -90 0
189 -188 -190 0
-189 188 0
-189 190 0
379 -189 183 0
-379 189 0
-379 -183 0
380 -88 -91 -188 0
-380 88 0
-380 91 0
-380 188 0
381 -188 88 91 0
-381 188 0
-381 -88 0
-381 -91 0
382 -193 -89 -92 -188 0
-382 193 0
-382 89 0
-382 92 0
-382 188 0
383 -193 -188 89 92 0
-383 193 0
-383 188 0
-383 -89 0
-383 -92 0
195 -91 -188 88 0
-195 91 0
-195 188 0
-195 -88 0
384 -193 -92 -188 89 0
-384 193 0
-384 92 0
-384 188 0
-384 -89 0
385 -195 -89 -188 92 0
-385 195 0
-385 89 0
-385 188 0
-385 -92 0
386 -194 -93 -188 90 0
-386 194 0
-386 93 0
-386 188 0
-386 -90 0
387 -196 -90 -188 93 0
-387 196 0
-387 90 0
-387 188 0
-387 -93 0
-189 197 0
388 -188 -197 0
-388 188 0
-388 197 0
198 -22 -37 0
-198 22 0
-198 37 0
389 -198 0
-389 198 0
390 -91 -198 85 0
-390 91 0
-390 198 0
-390 -85 0
391 -201 -198 85 91 0
-391 201 0
-391 198 0
-391 -85 0
-391 -91 0
392 -201 -85 -91 -198 0
-392 201 0
-392 85 0
-392 91 0
-392 198 0
393 -92 -198 86 0
-393 92 0
-393 198 0
-393 -86 0
394 -202 -198 86 92 0
-394 202 0
-394 198 0
-394 -86 0
-394 -92 0
395 -202 -86 -92 -198 0
-395 202 0
-395 86 0
-395 92 0
-395 198 0
202 -93 -198 87 0
-202 93 0
-202 198 0
-202 -87 0
199 -198 -200 0
-199 198 0
-199 200 0
396 -199 183 0
-396 199 0
-396 -183 0
397 -85 -91 -198 0
-397 85 0
-397 91 0
-397 198 0
398 -198 85 91 0
-398 198 0
-398 -85 0
-398 -91 0
399 -203 -86 -92 -198 0
-399 203 0
-399 86 0
-399 92 0
-399 198 0
400 -203 -198 86 92 0
-400 203 0
-400 198 0
-400 -86 0
-400 -92 0
205 -91 -198 85 0
-205 91 0
-205 198 0
-205 -85 0
401 -203 -92 -198 86 0
-401 203 0
-401 92 0
-401 198 0
-401 -86 0
402 -205 -86 -198 92 0
-402 205 0
-402 86 0
-402 198 0
-402 -92 0
403 -204 -93 -198 87 0
-403 204 0
-403 93 0
-403 198 0
-403 -87 0
404 -206 -87 -198 93 0
-404 206 0
-404 87 0
-404 198 0
-404 -93 0
-199 207 0
405 -198 -207 0
-405 198 0
-405 207 0
-185 186 0
-28 185 183 0
29 71 0
-29 -71 0
30 72 0
-30 -72 0
31 73 0
-31 -73 0
32 74 0
-32 -74 0
210 -94 0
-210 94 0
-95 -210 0
-96 -210 0
-94 -33 -209 0
-94 33 0
-95 -33 -209 0
-95 33 0
-96 -33 -209 0
-96 33 0
213 -32 0
-213 32 0
406 -213 0
-406 213 0
209 -213 0
-209 213 0
214 -22 -31 0
-214 22 0
-214 31 0
407 -214 0
-407 214 0
408 -94 -214 85 0
-408 94 0
-408 214 0
-408 -85 0
409 -217 -214 85 94 0
-409 217 0
-409 214 0
-409 -85 0
-409 -94 0
410 -217 -85 -94 -214 0
-410 217 0
-410 85 0
-410 94 0
-410 214 0
411 -95 -214 86 0
-411 95 0
-411 214 0
-411 -86 0
412 -218 -214 86 95 0
-412 218 0
-412 214 0
-412 -86 0
-412 -95 0
413 -218 -86 -95 -214 0
-413 218 0
-413 86 0
-413 95 0
-413 214 0
218 -96 -214 87 0
-218 96 0
-218 214 0
-218 -87 0
215 -214 -216 0
-215 214 0
-215 216 0
414 -215 209 0
-414 215 0
-414 -209 0
415 -85 -94 -214 0
-415 85 0
-415 94 0
-415 214 0
416 -214 85 94 0
-416 214 0
-416 -85 0
-416 -94 0
417 -219 -86 -95 -214 0
-417 219 0
-417 86 0
-417 95 0
-417 214 0
418 -219 -214 86 95 0
-418 219 0
-418 214 0
-418 -86 0
-418 -95 0
221 -94 -214 85 0
-221 94 0
-221 214 0
-221 -85 0
419 -219 -95 -214 86 0
-419 219 0
-419 95 0
-419 214 0
-419 -86 0
420 -221 -86 -214 95 0
-420 221 0
-420 86 0
-420 214 0
-420 -95 0
421 -220 -96 -214 87 0
-421 220 0
-421 96 0
-421 214 0
-421 -87 0
422 -222 -87 -214 96 0
-422 222 0
-422 87 0
-422 214 0
-422 -96 0
-215 223 0
423 -214 -223 0
-423 214 0
-423 223 0
224 -25 -35 0
-224 25 0
-224 35 0
424 -224 0
-424 224 0
425 -94 -224 88 0
-425 94 0
-425 224 0
-425 -88 0
426 -227 -224 88 94 0
-426 227 0
-426 224 0
-426 -88 0
-426 -94 0
427 -227 -88 -94 -224 0
-427 227 0
-427 88 0
-427 94 0
-427 224 0
428 -95 -224 89 0
-428 95 0
-428 224 0
-428 -89 0
429 -228 -224 89 95 0
-429 228 0
-429 224 0
-429 -89 0
-429 -95 0
430 -228 -89 -95 -224 0
-430 228 0
-430 89 0
-430 95 0
-430 224 0
228 -96 -224 90 0
-228 96 0
-228 224 0
-228 -90 0
225 -224 -226 0
-225 224 0
-225 226 0
431 -225 209 0
-431 225 0
-431 -209 0
432 -88 -94 -224 0
-432 88 0
-432 94 0
-432 224 0
433 -224 88 94 0
-433 224 0
-433 -88 0
-433 -94 0
434 -229 -89 -95 -224 0
-434 229 0
-434 89 0
-434 95 0
-434 224 0
435 -229 -224 89 95 0
-435 229 0
-435 224 0
-435 -89 0
-435 -95 0
231 -94 -224 88 0
-231 94 0
-231 224 0
-231 -88 0
436 -229 -95 -224 89 0
-436 229 0
-436 95 0
-436 224 0
-436 -89 0
437 -231 -89 -224 95 0
-437 231 0
-437 89 0
-437 224 0
-437 -95 0
438 -230 -96 -224 90 0
-438 230 0
-438 96 0
-438 224 0
-438 -90 0
439 -232 -90 -224 96 0
-439 232 0
-439 90 0
-439 224 0
-439 -96 0
-225 233 0
440 -224 -233 0
-440 224 0
-440 233 0
-211 212 0
-33 211 209 0
34 75 0
-34 -75 0
35 76 0
-35 -76 0
36 77 0
-36 -77 0
37 78 0
-37 -78 0
38 79 0
-38 -79 0
39 80 0
-39 -80 0
40 81 0
-40 -81 0
236 -97 0
-236 97 0
-98 -236 0
-99 -236 0
-97 -41 -235 0
-97 41 0
-98 -41 -235 0
-98 41 0
-99 -41 -235 0
-99 41 0
239 -40 0
-239 40 0
441 -239 0
-441 239 0
235 -239 0
-235 239 0
240 -22 -39 0
-240 22 0
-240 39 0
442 -240 0
-442 240 0
443 -97 -240 85 0
-443 97 0
-443 240 0
-443 -85 0
444 -243 -240 85 97 0
-444 243 0
-444 240 0
-444 -85 0
-444 -97 0
445 -243 -85 -97 -240 0
-445 243 0
-445 85 0
-445 97 0
-445 240 0
446 -98 -240 86 0
-446 98 0
-446 240 0
-446 -86 0
447 -244 -240 86 98 0
-447 244 0
-447 240 0
-447 -86 0
-447 -98 0
448 -244 -86 -98 -240 0
-448 244 0
-448 86 0
-448 98 0
-448 240 0
244 -99 -240 87 0
-244 99 0
-244 240 0
-244 -87 0
241 -240 -242 0
-241 240 0
-241 242 0
237 -241 235 0
-237 241 0
-237 -235 0
449 -85 -97 -240 0
-449 85 0
-449 97 0
-449 240 0
450 -240 85 97 0
-450 240 0
-450 -85 0
-450 -97 0
451 -245 -86 -98 -240 0
-451 245 0
-451 86 0
-451 98 0
-451 240 0
452 -245 -240 86 98 0
-452 245 0
-452 240 0
-452 -86 0
-452 -98 0
247 -97 -240 85 0
-247 97 0
-247 240 0
-247 -85 0
453 -245 -98 -240 86 0
-453 245 0
-453 98 0
-453 240 0
-453 -86 0
454 -247 -86 -240 98 0
-454 247 0
-454 86 0
-454 240 0
-454 -98 0
455 -246 -99 -240 87 0
-455 246 0
-455 99 0
-455 240 0
-455 -87 0
456 -248 -87 -240 99 0
-456 248 0
-456 87 0
-456 240 0
-456 -99 0
-241 249 0
238 -240 -249 0
-238 240 0
-238 249 0
-237 238 0
-41 237 235 0
42 82 0
-42 -82 0
43 83 0
-43 -83 0
44 -43 0
-44 43 0
45 84 0
-45 -84 0
46 -45 0
-46 45 0
47 0
48 0
49 0
50 0
51 0
52 0
53 0
54 0
55 0
56 0
57 0
58 0
59 0
60 0
61 0
62 0
63 0
64 0
65 0
66 21 0
-66 -21 0
67 23 0
-67 -23 0
68 24 0
-68 -24 0
69 26 0
-69 -26 0
70 27 0
-70 -27 0
71 29 0
-71 -29 0
72 30 0
-72 -30 0
73 31 0
-73 -31 0
74 32 0
-74 -32 0
75 34 0
-75 -34 0
76 35 0
-76 -35 0
77 36 0
-77 -36 0
78 37 0
-78 -37 0
79 38 0
-79 -38 0
80 39 0
-80 -39 0
81 40 0
-81 -40 0
82 42 0
-82 -42 0
83 43 0
-83 -43 0
84 45 0
-84 -45 0
-1 0
-1 0
-2 0
-3 0
-4 0
-5 0
-6 0
-7 0
-8 0
-9 0
-10 0
-11 0
-12 0
-13 0
-14 0
-15 0
-16 0
-17 0
-18 0
-19 0
-20 0
-22 250 251 268 285 302 0
22 -250 0
22 -251 0
22 -268 0
22 -285 0
22 -302 0
-25 319 320 337 354 0
25 -319 0
25 -320 0
25 -337 0
25 -354 0
-28 371 372 389 0
28 -371 0
28 -372 0
28 -389 0
-33 406 407 424 0
33 -406 0
33 -407 0
33 -424 0
-41 441 442 0
41 -441 0
41 -442 0
-100 0
-103 258 275 292 309 0
103 -258 0
103 -275 0
103 -292 0
103 -309 0
-104 267 284 301 318 0
104 -267 0
104 -284 0
104 -301 0
104 -318 0
-108 252 253 254 0
108 -252 0
108 -253 0
108 -254 0
-109 255 256 257 0
109 -255 0
109 -256 0
109 -257 0
-111 259 260 0
111 -259 0
111 -260 0
-112 261 262 0
112 -261 0
112 -262 0
-114 263 264 0
114 -263 0
114 -264 0
-115 265 266 0
115 -265 0
115 -266 0
-118 269 270 271 0
118 -269 0
118 -270 0
118 -271 0
-119 272 273 274 0
119 -272 0
119 -273 0
119 -274 0
-121 276 277 0
121 -276 0
121 -277 0
-122 278 279 0
122 -278 0
122 -279 0
-124 280 281 0
124 -280 0
124 -281 0
-125 282 283 0
125 -282 0
125 -283 0
-128 286 287 288 0
128 -286 0
128 -287 0
128 -288 0
-129 289 290 291 0
129 -289 0
129 -290 0
129 -291 0
-131 293 294 0
131 -293 0
131 -294 0
-132 295 296 0
132 -295 0
132 -296 0
-134 297 298 0
134 -297 0
134 -298 0
-135 299 300 0
135 -299 0
135 -300 0
-138 303 304 305 0
138 -303 0
138 -304 0
138 -305 0
-139 306 307 308 0
139 -306 0
139 -307 0
139 -308 0
-141 310 311 0
141 -310 0
141 -311 0
-142 312 313 0
142 -312 0
142 -313 0
-144 314 315 0
144 -314 0
144 -315 0
-145 316 317 0
145 -316 0
145 -317 0
-146 0
-149 327 344 361 0
149 -327 0
149 -344 0
149 -361 0
-150 336 353 370 0
150 -336 0
150 -353 0
150 -370 0
-154 321 322 323 0
154 -321 0
154 -322 0
154 -323 0
-155 324 325 326 0
155 -324 0
155 -325 0
155 -326 0
-157 328 329 0
157 -328 0
157 -329 0
-158 330 331 0
158 -330 0
158 -331 0
-160 332 333 0
160 -332 0
160 -333 0
-161 334 335 0
161 -334 0
161 -335 0
-164 338 339 340 0
164 -338 0
164 -339 0
164 -340 0
-165 341 342 343 0
165 -341 0
165 -342 0
165 -343 0
-167 345 346 0
167 -345 0
167 -346 0
-168 347 348 0
168 -347 0
168 -348 0
-170 349 350 0
170 -349 0
170 -350 0
-171 351 352 0
171 -351 0
171 -352 0
-174 355 356 357 0
174 -355 0
174 -356 0
174 -357 0
-175 358 359 360 0
175 -358 0
175 -359 0
175 -360 0
-177 362 363 0
177 -362 0
177 -363 0
-178 364 365 0
178 -364 0
178 -365 0
-180 366 367 0
180 -366 0
180 -367 0
-181 368 369 0
181 -368 0
181 -369 0
-182 0
-185 379 396 0
185 -379 0
185 -396 0
-186 388 405 0
186 -388 0
186 -405 0
-190 373 374 375 0
190 -373 0
190 -374 0
190 -375 0
-191 376 377 378 0
191 -376 0
191 -377 0
191 -378 0
-193 380 381 0
193 -380 0
193 -381 0
-194 382 383 0
194 -382 0
194 -383 0
-196 384 385 0
196 -384 0
196 -385 0
-197 386 387 0
197 -386 0
197 -387 0
-200 390 391 392 0
200 -390 0
200 -391 0
200 -392 0
-201 393 394 395 0
201 -393 0
201 -394 0
201 -395 0
-203 397 398 0
203 -397 0
203 -398 0
-204 399 400 0
204 -399 0
204 -400 0
-206 401 402 0
206 -401 0
206 -402 0
-207 403 404 0
207 -403 0
207 -404 0
-208 0
-211 414 431 0
211 -414 0
211 -431 0
-212 423 440 0
212 -423 0
212 -440 0
-216 408 409 410 0
216 -408 0
216 -409 0
216 -410 0
-217 411 412 413 0
217 -411 0
217 -412 0
217 -413 0
-219 415 416 0
219 -415 0
219 -416 0
-220 417 418 0
220 -417 0
220 -418 0
-222 419 420 0
222 -419 0
222 -420 0
-223 421 422 0
223 -421 0
223 -422 0
-226 425 426 427 0
226 -425 0
226 -426 0
226 -427 0
-227 428 429 430 0
227 -428 0
227 -429 0
227 -430 0
-229 432 433 0
229 -432 0
229 -433 0
-230 434 435 0
230 -434 0
230 -435 0
-232 436 437 0
232 -436 0
232 -437 0
-233 438 439 0
233 -438 0
233 -439 0
-234 0
-242 443 444 445 0
242 -443 0
242 -444 0
242 -445 0
-243 446 447 448 0
243 -446 0
243 -447 0
243 -448 0
-245 449 450 0
245 -449 0
245 -450 0
-246 451 452 0
246 -451 0
246 -452 0
-248 453 454 0
248 -453 0
248 -454 0
-249 455 456 0
249 -455 0
249 -456 0
c p auxilliary 1 2 3 4 5 6 7 8 9 10 11 12 13 14 15 16 17 18 19 20 66 67 68 69 70 71 72 73 74 75 76 77 78 79 80 81 82 83 84 85 86 87 88 89 90 91 92 93 94 95 96 97 98 99 100 101 102 103 104 105 106 107 108 109 110 111 112 113 114 115 116 117 118 119 120 121 122 123 124 125 126 127 128 129 130 131 132 133 134 135 136 137 138 139 140 141 142 143 144 145 146 147 148 149 150 151 152 153 154 155 156 157 158 159 160 161 162 163 164 165 166 167 168 169 170 171 172 173 174 175 176 177 178 179 180 181 182 183 184 185 186 187 188 189 190 191 192 193 194 195 196 197 198 199 200 201 202 203 204 205 206 207 208 209 210 211 212 213 214 215 216 217 218 219 220 221 222 223 224 225 226 227 228 229 230 231 232 233 234 235 236 237 238 239 240 241 242 243 244 245 246 247 248 249 250 251 252 253 254 255 256 257 258 259 260 261 262 263 264 265 266 267 268 269 270 271 272 273 274 275 276 277 278 279 280 281 282 283 284 285 286 287 288 289 290 291 292 293 294 295 296 297 298 299 300 301 302 303 304 305 306 307 308 309 310 311 312 313 314 315 316 317 318 319 320 321 322 323 324 325 326 327 328 329 330 331 332 333 334 335 336 337 338 339 340 341 342 343 344 345 346 347 348 349 350 351 352 353 354 355 356 357 358 359 360 361 362 363 364 365 366 367 368 369 370 371 372 373 374 375 376 377 378 379 380 381 382 383 384 385 386 387 388 389 390 391 392 393 394 395 396 397 398 399 400 401 402 403 404 405 406 407 408 409 410 411 412 413 414 415 416 417 418 419 420 421 422 423 424 425 426 427 428 429 430 431 432 433 434 435 436 437 438 439 440 441 442 443 444 445 446 447 448 449 450 451 452 453 454 455 456 0
